ascon/zero-correlation/data.dzn
RD = 1;



% ==========================================================================
% ==========================================================================
% ==========================================================================
% 5 = 1 + 4
% xu_0_0: "0000000?0?0?00??00?000?01?0??0??000???0?0000??0?0???00????0?????"
% xu_0_1: "0000000?0?0?00??00?000?00?0??0??000???0?0000??0?0???00????0?????"
% xu_0_2: "0000000?0?0?00??00?000?00?0??0??000???0?0000??0?0???00????0?????"
% xu_0_3: "0000000?0?0?00??00?000?01?0??0??000???0?0000??0?0???00????0?????"
% xu_0_4: "0000000?0?0?00??00?000?01?0??0??000???0?0000??0?0???00????0?????"


% xu_1_0: "????????????????????????????????????????????????????????????????"
% xu_1_1: "????????????????????????????????????????????????????????????????"
% xu_1_2: "??????1?????????????????????????????????????????????????????????"
% xu_1_3: "????????????????????????????????????????????????????????????????"
% xu_1_4: "????????????????????????????????????????????????????????????????"



% xl_0_0: "????????????????????????????????????????????????????????????????"
% xl_0_1: "????????????????????????????????????????????????????????????????"
% xl_0_2: "??????0?????????????????????????????????????????????????????????"
% xl_0_3: "????????????????????????????????????????????????????????????????"
% xl_0_4: "????????????????????????????????????????????????????????????????"


% xl_1_0: "00?0?0000?0?0???00?????0?0?0000???0???00?????0??0??0???0??0??0??"
% xl_1_1: "00?0?0000?0?0???00?????0?0?0000???0???00?????0?????0???0?????0??"
% xl_1_2: "00?0?000000?000?0000???0?0?0000???0?0?00?????0?0???00??00????0??"
% xl_1_3: "00?0?0000?0?0???00?????0?0?0000???0???00?????0?????0???0?????0??"
% xl_1_4: "00?0?0000?0?0???00?????0?0?0000???0???00?????0?????0???0?????0??"


% xl_2_0: "000000000000000000000?000000000000000000000?000000?000000000?00?"
% xl_2_1: "000000000000000000000?000000000000000000000?000000?000?0000??00?"
% xl_2_2: "000000000000000000000?000000000000000000000?000000?000?0000??00?"
% xl_2_3: "000000000000000000000?000000000000000000000?000000?000?0000??00?"
% xl_2_4: "000000000000000000000?000000000000000000000?000000?000?0000??00?"


% xl_3_0: "0000000000000000000000000000000000000000000000000000000000000000"
% xl_3_1: "000000000000000000000000000000000000000000000000000000000000?000"
% xl_3_2: "000000000000000000000000000000000000000000000000000000000000?000"
% xl_3_3: "000000000000000000000000000000000000000000000000000000000000?000"
% xl_3_4: "0000000000000000000000000000000000000000000000000000000000000000"


% xl_4_0: "1001000100100101101101101001001001011011011101101101001001001100"
% xl_4_1: "1001011101001101110001000100001111011101010010110100100011111001"
% xl_4_2: "0000000000000000000000000000000000000000000000000000000000000000"
% xl_4_3: "0000000000000000000000000000000000000000000000000000000000000000"
% xl_4_4: "1000010100101111100110001100011110011011100010010111000111111101"


% No non-fixed input bits: 155
% ----------
% ==========
% real 211,55
% user 1463,17
% sys 4,50
% ==========================================================================
% ==========================================================================
% ==========================================================================
